Route #1: 0 49 58 72 64 47 65 19 30 3 42 0
Route #2: 0 54 60 59 2 24 63 0
Route #3: 0 13 5 23 37 79 28 14 0
Route #4: 0 40 10 62 12 20 75 50 67 0
Route #5: 0 21 48 18 57 44 66 73 0
Route #6: 0 1 74 27 78 68 15 39 77 36 0
Route #7: 0 51 17 61 41 55 4 32 53 0
Route #8: 0 70 45 22 9 69 56 31 0
Route #9: 0 7 71 34 6 16 26 25 29 0
Route #10: 0 38 76 33 46 35 43 8 52 11 0
Cost 2732:
